&CONTROL
    prefix = Diamond
    calculation='scf'
    verbosity='high'
    wf_collect=.true.
    tstress = .true.
    tprnfor = .true.
    outdir = './'
    wfcdir = './'
    pseudo_dir = '/project2/gagalli/jiaweiz/ONCVPSP/sg15/'
/
&SYSTEM
   ntyp             = 1
   nat              = 64
   ibrav            = 0
   nspin = 1
   tot_charge = 0
   ecutwfc = 60
   input_dft = 'PBE'
   nbnd = 256
/
&ELECTRONS
   conv_thr=2e-08
/

ATOMIC_SPECIES
    C 12.011 C_ONCV_PBE_fr.upf

K_POINTS gamma

CELL_PARAMETERS angstrom
    7.13360023500000 0.00000000000000 0.00000000000000
    0.00000000000000 7.13360023500000 0.00000000000000
    0.00000000000000 0.00000000000000 7.13360023500000

ATOMIC_POSITIONS crystal
    C 0.0000000000 0.0000000000 0.0000000000 
    C 0.1250000000 0.1250000000 0.1250000000 
    C 0.0000000000 0.2500000000 0.2500000000 
    C 0.1250000000 0.3750000000 0.3750000000 
    C 0.2500000000 0.0000000000 0.2500000000 
    C 0.3750000000 0.1250000000 0.3750000000 
    C 0.2500000000 0.2500000000 0.0000000000 
    C 0.3750000000 0.3750000000 0.1250000000 
    C 0.0000000000 0.0000000000 0.5000000000 
    C 0.1250000000 0.1250000000 0.6250000000 
    C 0.0000000000 0.2500000000 0.7500000000 
    C 0.1250000000 0.3750000000 0.8750000000 
    C 0.2500000000 0.0000000000 0.7500000000 
    C 0.3750000000 0.1250000000 0.8750000000 
    C 0.2500000000 0.2500000000 0.5000000000 
    C 0.3750000000 0.3750000000 0.6250000000 
    C 0.0000000000 0.5000000000 0.0000000000 
    C 0.1250000000 0.6250000000 0.1250000000 
    C 0.0000000000 0.7500000000 0.2500000000 
    C 0.1250000000 0.8750000000 0.3750000000 
    C 0.2500000000 0.5000000000 0.2500000000 
    C 0.3750000000 0.6250000000 0.3750000000 
    C 0.2500000000 0.7500000000 0.0000000000 
    C 0.3750000000 0.8750000000 0.1250000000 
    C 0.0000000000 0.5000000000 0.5000000000 
    C 0.1250000000 0.6250000000 0.6250000000 
    C 0.0000000000 0.7500000000 0.7500000000 
    C 0.1250000000 0.8750000000 0.8750000000 
    C 0.2500000000 0.5000000000 0.7500000000 
    C 0.3750000000 0.6250000000 0.8750000000 
    C 0.2500000000 0.7500000000 0.5000000000 
    C 0.3750000000 0.8750000000 0.6250000000 
    C 0.5000000000 0.0000000000 0.0000000000 
    C 0.6250000000 0.1250000000 0.1250000000 
    C 0.5000000000 0.2500000000 0.2500000000 
    C 0.6250000000 0.3750000000 0.3750000000 
    C 0.7500000000 0.0000000000 0.2500000000 
    C 0.8750000000 0.1250000000 0.3750000000 
    C 0.7500000000 0.2500000000 0.0000000000 
    C 0.8750000000 0.3750000000 0.1250000000 
    C 0.5000000000 0.0000000000 0.5000000000 
    C 0.6250000000 0.1250000000 0.6250000000 
    C 0.5000000000 0.2500000000 0.7500000000 
    C 0.6250000000 0.3750000000 0.8750000000 
    C 0.7500000000 0.0000000000 0.7500000000 
    C 0.8750000000 0.1250000000 0.8750000000 
    C 0.7500000000 0.2500000000 0.5000000000 
    C 0.8750000000 0.3750000000 0.6250000000 
    C 0.5000000000 0.5000000000 0.0000000000 
    C 0.6250000000 0.6250000000 0.1250000000 
    C 0.5000000000 0.7500000000 0.2500000000 
    C 0.6250000000 0.8750000000 0.3750000000 
    C 0.7500000000 0.5000000000 0.2500000000 
    C 0.8750000000 0.6250000000 0.3750000000 
    C 0.7500000000 0.7500000000 0.0000000000 
    C 0.8750000000 0.8750000000 0.1250000000 
    C 0.5000000000 0.5000000000 0.5000000000 
    C 0.6250000000 0.6250000000 0.6250000000 
    C 0.5000000000 0.7500000000 0.7500000000 
    C 0.6250000000 0.8750000000 0.8750000000 
    C 0.7500000000 0.5000000000 0.7500000000 
    C 0.8750000000 0.6250000000 0.8750000000 
    C 0.7500000000 0.7500000000 0.5000000000 
    C 0.8750000000 0.8750000000 0.6250000000 

